c strEdges: 189  randomEdges: 441 
c degrees:  2  3 
c girth: 10 max: 8.032766  
c Hgirth mixed MAXCUT instance
c generated from an undirected graph
c to solve unweighted MaxCut
p cnf 140 1260
133 124 0
-133 -124 0
133 83 0
-133 -83 0
133 2 0
-133 -2 0
127 56 0
-127 -56 0
127 37 0
-127 -37 0
127 138 0
-127 -138 0
112 33 0
-112 -33 0
112 47 0
-112 -47 0
95 70 0
-95 -70 0
95 38 0
-95 -38 0
95 67 0
-95 -67 0
102 47 0
-102 -47 0
102 78 0
-102 -78 0
46 18 0
-46 -18 0
46 99 0
-46 -99 0
46 101 0
-46 -101 0
92 101 0
-92 -101 0
92 13 0
-92 -13 0
63 107 0
-63 -107 0
63 14 0
-63 -14 0
63 11 0
-63 -11 0
55 2 0
-55 -2 0
55 18 0
-55 -18 0
55 41 0
-55 -41 0
90 121 0
-90 -121 0
90 125 0
-90 -125 0
90 129 0
-90 -129 0
94 38 0
-94 -38 0
94 75 0
-94 -75 0
94 53 0
-94 -53 0
62 72 0
-62 -72 0
62 132 0
-62 -132 0
62 52 0
-62 -52 0
20 3 0
-20 -3 0
20 38 0
-20 -38 0
20 138 0
-20 -138 0
115 30 0
-115 -30 0
115 18 0
-115 -18 0
34 52 0
-34 -52 0
34 24 0
-34 -24 0
34 53 0
-34 -53 0
60 81 0
-60 -81 0
60 109 0
-60 -109 0
60 113 0
-60 -113 0
88 108 0
-88 -108 0
88 121 0
-88 -121 0
88 132 0
-88 -132 0
57 109 0
-57 -109 0
57 28 0
-57 -28 0
66 37 0
-66 -37 0
66 44 0
-66 -44 0
66 89 0
-66 -89 0
135 10 0
-135 -10 0
135 24 0
-135 -24 0
135 83 0
-135 -83 0
105 129 0
-105 -129 0
105 8 0
-105 -8 0
105 45 0
-105 -45 0
139 75 0
-139 -75 0
139 108 0
-139 -108 0
139 97 0
-139 -97 0
86 61 0
-86 -61 0
86 52 0
-86 -52 0
86 73 0
-86 -73 0
35 67 0
-35 -67 0
35 41 0
-35 -41 0
134 140 0
-134 -140 0
134 111 0
-134 -111 0
31 111 0
-31 -111 0
31 78 0
-31 -78 0
31 68 0
-31 -68 0
48 132 0
-48 -132 0
48 12 0
-48 -12 0
48 49 0
-48 -49 0
5 76 0
-5 -76 0
5 8 0
-5 -8 0
5 101 0
-5 -101 0
26 68 0
-26 -68 0
26 70 0
-26 -70 0
26 13 0
-26 -13 0
65 97 0
-65 -97 0
65 100 0
-65 -100 0
65 33 0
-65 -33 0
84 126 0
-84 -126 0
84 58 0
-84 -58 0
84 75 0
-84 -75 0
4 100 0
-4 -100 0
4 106 0
-4 -106 0
4 9 0
-4 -9 0
43 44 0
-43 -44 0
43 32 0
-43 -32 0
43 74 0
-43 -74 0
71 113 0
-71 -113 0
71 21 0
-71 -21 0
29 73 0
-29 -73 0
29 126 0
-29 -126 0
131 27 0
-131 -27 0
131 21 0
-131 -21 0
131 104 0
-131 -104 0
114 98 0
-114 -98 0
114 99 0
-114 -99 0
114 61 0
-114 -61 0
123 53 0
-123 -53 0
123 30 0
-123 -30 0
123 109 0
-123 -109 0
110 32 0
-110 -32 0
110 121 0
-110 -121 0
137 13 0
-137 -13 0
137 107 0
-137 -107 0
137 10 0
-137 -10 0
50 58 0
-50 -58 0
50 56 0
-50 -56 0
93 106 0
-93 -106 0
93 10 0
-93 -10 0
120 6 0
-120 -6 0
120 72 0
-120 -72 0
128 41 0
-128 -41 0
128 118 0
-128 -118 0
128 11 0
-128 -11 0
36 122 0
-36 -122 0
36 104 0
-36 -104 0
36 124 0
-36 -124 0
79 49 0
-79 -49 0
79 98 0
-79 -98 0
79 107 0
-79 -107 0
77 99 0
-77 -99 0
77 3 0
-77 -3 0
77 74 0
-77 -74 0
42 138 0
-42 -138 0
42 45 0
-42 -45 0
42 106 0
-42 -106 0
136 78 0
-136 -78 0
136 81 0
-136 -81 0
15 7 0
-15 -7 0
15 64 0
-15 -64 0
103 8 0
-103 -8 0
103 126 0
-103 -126 0
23 1 0
-23 -1 0
23 73 0
-23 -73 0
23 9 0
-23 -9 0
117 21 0
-117 -21 0
117 6 0
-117 -6 0
117 76 0
-117 -76 0
82 64 0
-82 -64 0
82 116 0
-82 -116 0
82 6 0
-82 -6 0
85 12 0
-85 -12 0
85 7 0
-85 -7 0
85 111 0
-85 -111 0
80 24 0
-80 -24 0
80 59 0
-80 -59 0
54 125 0
-54 -125 0
54 116 0
-54 -116 0
54 118 0
-54 -118 0
25 74 0
-25 -74 0
25 140 0
-25 -140 0
19 116 0
-19 -116 0
19 28 0
-19 -28 0
91 59 0
-91 -59 0
91 27 0
-91 -27 0
91 67 0
-91 -67 0
96 89 0
-96 -89 0
96 81 0
-96 -81 0
96 61 0
-96 -61 0
40 83 0
-40 -83 0
40 58 0
-40 -58 0
40 7 0
-40 -7 0
51 9 0
-51 -9 0
51 64 0
-51 -64 0
16 118 0
-16 -118 0
16 47 0
-16 -47 0
16 39 0
-16 -39 0
17 14 0
-17 -14 0
17 122 0
-17 -122 0
17 140 0
-17 -140 0
69 28 0
-69 -28 0
69 59 0
-69 -59 0
130 39 0
-130 -39 0
130 1 0
-130 -1 0
130 3 0
-130 -3 0
22 45 0
-22 -45 0
22 98 0
-22 -98 0
22 27 0
-22 -27 0
87 104 0
-87 -104 0
87 97 0
-87 -97 0
87 89 0
-87 -89 0
119 11 0
-119 -11 0
119 113 0
-119 -113 0
119 56 0
-119 -56 0
5 9 0
-5 -9 0
131 75 0
-131 -75 0
93 81 0
-93 -81 0
130 68 0
-130 -68 0
119 9 0
-119 -9 0
69 14 0
-69 -14 0
81 12 0
-81 -12 0
92 65 0
-92 -65 0
68 11 0
-68 -11 0
108 9 0
-108 -9 0
35 21 0
-35 -21 0
137 101 0
-137 -101 0
76 11 0
-76 -11 0
24 125 0
-24 -125 0
51 113 0
-51 -113 0
60 6 0
-60 -6 0
32 45 0
-32 -45 0
4 138 0
-4 -138 0
95 96 0
-95 -96 0
139 140 0
-139 -140 0
112 22 0
-112 -22 0
5 49 0
-5 -49 0
117 61 0
-117 -61 0
105 121 0
-105 -121 0
111 100 0
-111 -100 0
65 140 0
-65 -140 0
79 59 0
-79 -59 0
38 81 0
-38 -81 0
100 113 0
-100 -113 0
80 87 0
-80 -87 0
105 42 0
-105 -42 0
26 106 0
-26 -106 0
75 68 0
-75 -68 0
47 129 0
-47 -129 0
8 125 0
-8 -125 0
125 83 0
-125 -83 0
55 77 0
-55 -77 0
135 71 0
-135 -71 0
54 3 0
-54 -3 0
13 21 0
-13 -21 0
137 138 0
-137 -138 0
101 99 0
-101 -99 0
92 42 0
-92 -42 0
105 29 0
-105 -29 0
107 7 0
-107 -7 0
95 115 0
-95 -115 0
137 83 0
-137 -83 0
18 8 0
-18 -8 0
43 25 0
-43 -25 0
29 124 0
-29 -124 0
116 118 0
-116 -118 0
124 67 0
-124 -67 0
102 52 0
-102 -52 0
93 52 0
-93 -52 0
134 48 0
-134 -48 0
57 134 0
-57 -134 0
34 119 0
-34 -119 0
34 65 0
-34 -65 0
93 103 0
-93 -103 0
92 125 0
-92 -125 0
135 49 0
-135 -49 0
119 13 0
-119 -13 0
17 67 0
-17 -67 0
31 97 0
-31 -97 0
87 107 0
-87 -107 0
126 11 0
-126 -11 0
94 31 0
-94 -31 0
69 111 0
-69 -111 0
66 54 0
-66 -54 0
95 110 0
-95 -110 0
70 76 0
-70 -76 0
123 3 0
-123 -3 0
66 65 0
-66 -65 0
105 17 0
-105 -17 0
140 44 0
-140 -44 0
131 49 0
-131 -49 0
88 50 0
-88 -50 0
136 3 0
-136 -3 0
3 99 0
-3 -99 0
129 122 0
-129 -122 0
35 39 0
-35 -39 0
107 73 0
-107 -73 0
20 33 0
-20 -33 0
50 2 0
-50 -2 0
131 44 0
-131 -44 0
4 91 0
-4 -91 0
76 64 0
-76 -64 0
63 32 0
-63 -32 0
71 121 0
-71 -121 0
116 39 0
-116 -39 0
42 12 0
-42 -12 0
57 39 0
-57 -39 0
87 18 0
-87 -18 0
53 78 0
-53 -78 0
43 24 0
-43 -24 0
115 40 0
-115 -40 0
36 97 0
-36 -97 0
95 99 0
-95 -99 0
74 116 0
-74 -116 0
10 83 0
-10 -83 0
135 3 0
-135 -3 0
18 11 0
-18 -11 0
94 93 0
-94 -93 0
70 1 0
-70 -1 0
124 38 0
-124 -38 0
89 9 0
-89 -9 0
5 32 0
-5 -32 0
80 126 0
-80 -126 0
113 58 0
-113 -58 0
94 61 0
-94 -61 0
105 31 0
-105 -31 0
77 121 0
-77 -121 0
114 59 0
-114 -59 0
134 110 0
-134 -110 0
26 50 0
-26 -50 0
79 72 0
-79 -72 0
29 114 0
-29 -114 0
31 39 0
-31 -39 0
60 61 0
-60 -61 0
62 135 0
-62 -135 0
137 117 0
-137 -117 0
48 8 0
-48 -8 0
60 91 0
-60 -91 0
40 99 0
-40 -99 0
133 26 0
-133 -26 0
65 93 0
-65 -93 0
4 54 0
-4 -54 0
96 67 0
-96 -67 0
15 97 0
-15 -97 0
102 116 0
-102 -116 0
115 48 0
-115 -48 0
86 101 0
-86 -101 0
48 78 0
-48 -78 0
19 87 0
-19 -87 0
35 82 0
-35 -82 0
63 134 0
-63 -134 0
66 64 0
-66 -64 0
137 79 0
-137 -79 0
48 65 0
-48 -65 0
17 97 0
-17 -97 0
84 43 0
-84 -43 0
70 21 0
-70 -21 0
109 106 0
-109 -106 0
94 80 0
-94 -80 0
110 24 0
-110 -24 0
16 7 0
-16 -7 0
56 33 0
-56 -33 0
82 38 0
-82 -38 0
13 6 0
-13 -6 0
90 73 0
-90 -73 0
60 105 0
-60 -105 0
60 97 0
-60 -97 0
129 68 0
-129 -68 0
134 32 0
-134 -32 0
103 69 0
-103 -69 0
29 109 0
-29 -109 0
133 134 0
-133 -134 0
120 111 0
-120 -111 0
113 64 0
-113 -64 0
107 13 0
-107 -13 0
51 119 0
-51 -119 0
35 97 0
-35 -97 0
94 35 0
-94 -35 0
110 103 0
-110 -103 0
95 106 0
-95 -106 0
44 59 0
-44 -59 0
90 100 0
-90 -100 0
57 51 0
-57 -51 0
38 99 0
-38 -99 0
119 52 0
-119 -52 0
115 97 0
-115 -97 0
139 109 0
-139 -109 0
133 19 0
-133 -19 0
105 83 0
-105 -83 0
1 59 0
-1 -59 0
97 27 0
-97 -27 0
96 22 0
-96 -22 0
43 89 0
-43 -89 0
92 40 0
-92 -40 0
65 16 0
-65 -16 0
109 118 0
-109 -118 0
95 9 0
-95 -9 0
13 89 0
-13 -89 0
55 78 0
-55 -78 0
50 81 0
-50 -81 0
50 85 0
-50 -85 0
30 132 0
-30 -132 0
106 28 0
-106 -28 0
135 9 0
-135 -9 0
119 45 0
-119 -45 0
77 40 0
-77 -40 0
95 29 0
-95 -29 0
8 118 0
-8 -118 0
57 85 0
-57 -85 0
69 113 0
-69 -113 0
94 130 0
-94 -130 0
102 114 0
-102 -114 0
48 9 0
-48 -9 0
2 52 0
-2 -52 0
55 81 0
-55 -81 0
95 6 0
-95 -6 0
128 136 0
-128 -136 0
91 28 0
-91 -28 0
115 128 0
-115 -128 0
131 9 0
-131 -9 0
43 130 0
-43 -130 0
119 89 0
-119 -89 0
89 14 0
-89 -14 0
2 76 0
-2 -76 0
133 23 0
-133 -23 0
15 41 0
-15 -41 0
16 58 0
-16 -58 0
50 23 0
-50 -23 0
65 76 0
-65 -76 0
135 5 0
-135 -5 0
54 61 0
-54 -61 0
95 24 0
-95 -24 0
51 18 0
-51 -18 0
120 73 0
-120 -73 0
86 12 0
-86 -12 0
107 126 0
-107 -126 0
115 29 0
-115 -29 0
123 41 0
-123 -41 0
57 126 0
-57 -126 0
115 21 0
-115 -21 0
112 140 0
-112 -140 0
85 125 0
-85 -125 0
86 108 0
-86 -108 0
57 32 0
-57 -32 0
63 111 0
-63 -111 0
109 75 0
-109 -75 0
60 41 0
-60 -41 0
32 11 0
-32 -11 0
127 34 0
-127 -34 0
55 48 0
-55 -48 0
43 69 0
-43 -69 0
85 104 0
-85 -104 0
54 11 0
-54 -11 0
60 116 0
-60 -116 0
43 39 0
-43 -39 0
120 91 0
-120 -91 0
116 28 0
-116 -28 0
15 6 0
-15 -6 0
71 54 0
-71 -54 0
46 23 0
-46 -23 0
60 1 0
-60 -1 0
107 2 0
-107 -2 0
42 97 0
-42 -97 0
88 100 0
-88 -100 0
120 97 0
-120 -97 0
92 30 0
-92 -30 0
110 74 0
-110 -74 0
5 84 0
-5 -84 0
93 69 0
-93 -69 0
87 30 0
-87 -30 0
95 51 0
-95 -51 0
87 100 0
-87 -100 0
56 122 0
-56 -122 0
91 118 0
-91 -118 0
5 10 0
-5 -10 0
5 18 0
-5 -18 0
112 30 0
-112 -30 0
111 44 0
-111 -44 0
110 126 0
-110 -126 0
137 85 0
-137 -85 0
22 124 0
-22 -124 0
60 88 0
-60 -88 0
31 21 0
-31 -21 0
18 1 0
-18 -1 0
84 61 0
-84 -61 0
108 39 0
-108 -39 0
10 45 0
-10 -45 0
124 140 0
-124 -140 0
112 54 0
-112 -54 0
77 45 0
-77 -45 0
82 7 0
-82 -7 0
51 97 0
-51 -97 0
37 129 0
-37 -129 0
93 53 0
-93 -53 0
80 107 0
-80 -107 0
38 49 0
-38 -49 0
2 44 0
-2 -44 0
23 138 0
-23 -138 0
61 113 0
-61 -113 0
105 80 0
-105 -80 0
137 3 0
-137 -3 0
130 67 0
-130 -67 0
103 30 0
-103 -30 0
80 97 0
-80 -97 0
111 13 0
-111 -13 0
95 47 0
-95 -47 0
13 7 0
-13 -7 0
51 61 0
-51 -61 0
94 87 0
-94 -87 0
5 78 0
-5 -78 0
127 14 0
-127 -14 0
86 30 0
-86 -30 0
65 21 0
-65 -21 0
69 27 0
-69 -27 0
72 3 0
-72 -3 0
31 52 0
-31 -52 0
129 1 0
-129 -1 0
19 83 0
-19 -83 0
94 119 0
-94 -119 0
35 4 0
-35 -4 0
92 2 0
-92 -2 0
138 59 0
-138 -59 0
65 120 0
-65 -120 0
46 29 0
-46 -29 0
139 138 0
-139 -138 0
66 43 0
-66 -43 0
117 81 0
-117 -81 0
73 125 0
-73 -125 0
92 85 0
-92 -85 0
23 47 0
-23 -47 0
33 74 0
-33 -74 0
139 11 0
-139 -11 0
133 33 0
-133 -33 0
35 138 0
-35 -138 0
90 54 0
-90 -54 0
95 92 0
-95 -92 0
131 89 0
-131 -89 0
127 93 0
-127 -93 0
93 1 0
-93 -1 0
16 116 0
-16 -116 0
93 14 0
-93 -14 0
132 138 0
-132 -138 0
56 41 0
-56 -41 0
136 18 0
-136 -18 0
66 49 0
-66 -49 0
44 1 0
-44 -1 0
36 80 0
-36 -80 0
54 19 0
-54 -19 0
63 120 0
-63 -120 0
92 76 0
-92 -76 0
65 129 0
-65 -129 0
127 63 0
-127 -63 0
29 70 0
-29 -70 0
113 83 0
-113 -83 0
102 71 0
-102 -71 0
55 24 0
-55 -24 0
112 80 0
-112 -80 0
10 122 0
-10 -122 0
34 7 0
-34 -7 0
20 83 0
-20 -83 0
6 11 0
-6 -11 0
90 58 0
-90 -58 0
33 18 0
-33 -18 0
34 66 0
-34 -66 0
34 118 0
-34 -118 0
98 118 0
-98 -118 0
140 73 0
-140 -73 0
20 77 0
-20 -77 0
135 14 0
-135 -14 0
64 9 0
-64 -9 0
40 101 0
-40 -101 0
127 48 0
-127 -48 0
103 45 0
-103 -45 0
80 111 0
-80 -111 0
80 119 0
-80 -119 0
85 2 0
-85 -2 0
57 113 0
-57 -113 0
52 126 0
-52 -126 0
4 128 0
-4 -128 0
20 99 0
-20 -99 0
102 129 0
-102 -129 0
103 130 0
-103 -130 0
26 77 0
-26 -77 0
84 37 0
-84 -37 0
88 11 0
-88 -11 0
94 103 0
-94 -103 0
106 6 0
-106 -6 0
131 128 0
-131 -128 0
79 80 0
-79 -80 0
101 140 0
-101 -140 0
5 138 0
-5 -138 0
20 110 0
-20 -110 0
128 27 0
-128 -27 0
17 76 0
-17 -76 0
94 69 0
-94 -69 0
4 23 0
-4 -23 0
29 116 0
-29 -116 0
124 111 0
-124 -111 0
101 37 0
-101 -37 0
92 68 0
-92 -68 0
42 61 0
-42 -61 0
17 47 0
-17 -47 0
112 14 0
-112 -14 0
107 138 0
-107 -138 0
139 103 0
-139 -103 0
34 14 0
-34 -14 0
80 37 0
-80 -37 0
43 56 0
-43 -56 0
25 138 0
-25 -138 0
52 74 0
-52 -74 0
40 37 0
-40 -37 0
61 8 0
-61 -8 0
43 73 0
-43 -73 0
54 9 0
-54 -9 0
136 13 0
-136 -13 0
112 73 0
-112 -73 0
25 106 0
-25 -106 0
95 111 0
-95 -111 0
110 33 0
-110 -33 0
88 33 0
-88 -33 0
31 110 0
-31 -110 0
80 3 0
-80 -3 0
66 129 0
-66 -129 0
73 106 0
-73 -106 0
34 78 0
-34 -78 0
63 94 0
-63 -94 0
8 59 0
-8 -59 0
54 21 0
-54 -21 0
79 138 0
-79 -138 0
100 83 0
-100 -83 0
3 30 0
-3 -30 0
29 30 0
-29 -30 0
130 140 0
-130 -140 0
73 13 0
-73 -13 0
82 41 0
-82 -41 0
17 9 0
-17 -9 0
27 89 0
-27 -89 0
37 58 0
-37 -58 0
127 97 0
-127 -97 0
73 98 0
-73 -98 0
51 21 0
-51 -21 0
63 98 0
-63 -98 0
129 53 0
-129 -53 0
77 104 0
-77 -104 0
26 75 0
-26 -75 0
123 101 0
-123 -101 0
40 64 0
-40 -64 0
132 98 0
-132 -98 0
95 10 0
-95 -10 0
84 27 0
-84 -27 0
90 29 0
-90 -29 0
130 101 0
-130 -101 0
102 19 0
-102 -19 0
33 121 0
-33 -121 0
114 122 0
-114 -122 0
15 80 0
-15 -80 0
